benchmarks_vrp/CMT3/no_cluster/CMT3_1.vrp
NAME: CMT3_1
TYPE: CVRP
COMMENT: 826.14 - Cluster Nr.1
DIMENSION: 14
CAPACITY: 200
EDGE_WEIGHT_TYPE: EUC_2D
NODE_COORD_TYPE: TWOD_COORDS
NODE_COORD_SECTION: 
9 25 24
10 35 35
11 17 34
5 21 24
13 4 18
14 15 30
3 25 30
7 5 30
8 14 37
4 6 38
1 26 27
2 20 26
12 11 31
6 22 27
DEPOT_SECTION: 
10
-1
DEMAND_SECTION: 
12 7
14 26
7 2
10 0
4 16
3 3
11 3
5 28
8 11
13 35
6 11
1 27
2 9
9 20
EOF
