benchmarks_vrp/CMT3/no_cluster/CMT3_1.tour
NAME: CMT3_1 solution
TYPE: TOUR
TOUR_SECTION:
10 3 1 9 5 6 2 14 12 13 7 4 8 11 -1
-1
EOF